* build structure files
*

set version 36

if @?clib eq 0 set clib ~/scripts/charmm
if @?plast eq 0 set plast cter

stream @{clib}/readpsf36.str

read sequ pdb name @name.pdb
generate @{name} setup warn first @pfirst last @plast
!
set last ?nres
!
!rename atom CD1 sele type CD .and. resname ILE end ! could already be done in getchain
rename atom O sele type OT1  .and. resid @last end
rename atom OXT sele type OT2  .and. resid @last end

read coor pdb name @name.pdb resid

rename atom CD  sele type CD1 .and. resname ILE end
rename atom OT1 sele type O  .and. resid @last end
rename atom OT2 sele type OXT  .and. resid @last end

! missing
print coor sele .not. ( init .or. hydrogen ) end
! add disulfides
stream @{clib}/disu.str
autogen angl dihe

define xray sele init end
scalar wmain set 1 sele xray end
print coor select .not. (init .or. hydrogen) end

ic param
ic fill preserve
ic build
print coor select .not. (init .or. hydrogen) end

energy

coor init sele hydro end

!stop
hbuild
print coor sele .not. init end

write psf card name @{name}.psf
write coor card name @name.cor
write coor pdb name @name.pdb ! overwrite original pdb

