* add psilcs ligands (aas) to a solvated protein
*

set version 36

set clib ~/scripts/charmm

set resid
!set cgenff
!set xplor
!set topparcgenff ~/charmm/parameters/cgenff31
stream @{clib}/readpsf36m.str

set seg1 PHE
set seg2 TRP
set seg3 LYS
set seg4 LEU
set seg5 ASP
set seg6 HSD
set seg7 MET
set seg8 TYR
set nseg 8

set iseg 1
label segs
! set candidates  .byres. ( ( point 44 43 19 cut 11 ) .and. segid wat )
 set candidates  .byres. ( ( point 42 36 18 cut 11 ) .and. segid wat ) ! replace waters in the vicinity of a putative active site
!
! add ligands using ionization scripts
 set ionsneeded 1
 set ion @seg@@iseg
 set ionseg @seg@@iseg
 set ionpdb ligands/@seg@@iseg.pdb
 stream @{clib}/addions.str
 print coor sele .not. init end
 incr iseg
 if @iseg .le. @nseg -
goto segs
!
mini abnr nstep 100
!mini conj nstep 100
!mini sd nstep 100
!
write psf @format name @{psffile}-psilcs.psf xplor
! standard psf
!write psf oldpsf @format name @{psffile}-silcso.psf
write coor @format name @{corfile}-psilcs.cor
write coor pdb name @{corfile}-psilcs.pdb

